c Reduced graph for mulsol.i.5 generated by Cyril Grelier
p edge 72 1293
e 1 2
e 1 5
e 1 7
e 1 9
e 1 11
e 1 13
e 1 14
e 1 16
e 1 17
e 1 18
e 1 19
e 1 20
e 1 21
e 1 22
e 1 23
e 1 24
e 1 25
e 1 26
e 1 27
e 1 28
e 1 29
e 1 30
e 1 32
e 1 33
e 1 34
e 1 35
e 1 36
e 1 37
e 1 38
e 1 39
e 1 40
e 1 41
e 1 50
e 1 51
e 1 52
e 1 53
e 1 54
e 1 55
e 1 56
e 1 57
e 1 58
e 1 59
e 1 60
e 1 61
e 1 62
e 1 63
e 1 64
e 1 65
e 1 66
e 1 67
e 1 68
e 1 69
e 1 70
e 1 71
e 1 72
e 2 5
e 2 7
e 2 9
e 2 11
e 2 13
e 2 14
e 2 16
e 2 17
e 2 18
e 2 19
e 2 20
e 2 21
e 2 22
e 2 23
e 2 24
e 2 25
e 2 26
e 2 27
e 2 28
e 2 29
e 2 30
e 2 32
e 2 33
e 2 34
e 2 35
e 2 36
e 2 37
e 2 38
e 2 39
e 2 40
e 2 41
e 2 50
e 2 51
e 2 52
e 2 53
e 2 54
e 2 55
e 2 56
e 2 57
e 2 58
e 2 59
e 2 60
e 2 61
e 2 62
e 2 63
e 2 64
e 2 65
e 2 66
e 2 67
e 2 68
e 2 69
e 2 70
e 2 71
e 2 72
e 3 4
e 3 5
e 3 6
e 3 7
e 3 8
e 3 9
e 3 10
e 3 11
e 3 12
e 3 13
e 3 15
e 3 16
e 3 17
e 3 31
e 3 32
e 3 33
e 3 34
e 3 35
e 3 36
e 3 37
e 3 38
e 3 39
e 3 40
e 3 41
e 3 42
e 3 43
e 3 44
e 3 45
e 3 46
e 3 47
e 3 48
e 3 49
e 3 50
e 3 51
e 3 52
e 3 53
e 3 54
e 3 55
e 3 56
e 3 57
e 3 58
e 3 59
e 3 60
e 3 61
e 3 62
e 3 63
e 3 64
e 3 65
e 3 66
e 3 67
e 3 68
e 3 69
e 3 70
e 3 71
e 3 72
e 4 5
e 4 6
e 4 7
e 4 8
e 4 9
e 4 10
e 4 11
e 4 12
e 4 13
e 4 15
e 4 17
e 4 31
e 4 32
e 4 33
e 4 34
e 4 35
e 4 36
e 4 37
e 4 38
e 4 39
e 4 40
e 4 41
e 4 42
e 4 43
e 4 44
e 4 45
e 4 46
e 4 47
e 4 48
e 4 49
e 4 56
e 4 57
e 4 58
e 4 59
e 4 60
e 4 61
e 4 62
e 4 63
e 4 64
e 4 68
e 4 72
e 5 6
e 5 7
e 5 8
e 5 9
e 5 10
e 5 11
e 5 12
e 5 13
e 5 14
e 5 16
e 5 18
e 5 19
e 5 20
e 5 21
e 5 22
e 5 23
e 5 24
e 5 25
e 5 26
e 5 27
e 5 28
e 5 29
e 5 30
e 5 50
e 5 51
e 5 52
e 5 53
e 5 54
e 5 55
e 5 57
e 5 58
e 5 65
e 5 66
e 5 67
e 5 69
e 5 70
e 5 71
e 5 72
e 6 7
e 6 8
e 6 9
e 6 10
e 6 11
e 6 12
e 6 15
e 6 17
e 6 31
e 6 32
e 6 33
e 6 34
e 6 35
e 6 36
e 6 37
e 6 38
e 6 39
e 6 40
e 6 41
e 6 42
e 6 43
e 6 44
e 6 45
e 6 46
e 6 47
e 6 48
e 6 49
e 6 56
e 6 57
e 6 58
e 6 59
e 6 60
e 6 61
e 6 62
e 6 63
e 6 64
e 6 68
e 6 72
e 7 8
e 7 9
e 7 10
e 7 11
e 7 13
e 7 14
e 7 16
e 7 18
e 7 19
e 7 20
e 7 21
e 7 22
e 7 23
e 7 24
e 7 25
e 7 26
e 7 27
e 7 28
e 7 29
e 7 30
e 7 50
e 7 51
e 7 52
e 7 53
e 7 54
e 7 55
e 7 57
e 7 58
e 7 65
e 7 66
e 7 67
e 7 69
e 7 70
e 7 71
e 7 72
e 8 9
e 8 10
e 8 12
e 8 15
e 8 17
e 8 31
e 8 32
e 8 33
e 8 34
e 8 35
e 8 36
e 8 37
e 8 38
e 8 39
e 8 40
e 8 41
e 8 42
e 8 43
e 8 44
e 8 45
e 8 46
e 8 47
e 8 48
e 8 49
e 8 56
e 8 57
e 8 58
e 8 59
e 8 60
e 8 61
e 8 62
e 8 63
e 8 64
e 8 68
e 8 72
e 9 11
e 9 13
e 9 14
e 9 16
e 9 18
e 9 19
e 9 20
e 9 21
e 9 22
e 9 23
e 9 24
e 9 25
e 9 26
e 9 27
e 9 28
e 9 29
e 9 30
e 9 50
e 9 51
e 9 52
e 9 53
e 9 54
e 9 55
e 9 57
e 9 58
e 9 65
e 9 66
e 9 67
e 9 69
e 9 70
e 9 71
e 9 72
e 10 12
e 10 15
e 10 17
e 10 31
e 10 32
e 10 33
e 10 34
e 10 35
e 10 36
e 10 37
e 10 38
e 10 39
e 10 40
e 10 41
e 10 42
e 10 43
e 10 44
e 10 45
e 10 46
e 10 47
e 10 48
e 10 49
e 10 56
e 10 57
e 10 58
e 10 59
e 10 60
e 10 61
e 10 62
e 10 63
e 10 64
e 10 68
e 10 72
e 11 13
e 11 14
e 11 16
e 11 18
e 11 19
e 11 20
e 11 21
e 11 22
e 11 23
e 11 24
e 11 25
e 11 26
e 11 27
e 11 28
e 11 29
e 11 30
e 11 50
e 11 51
e 11 52
e 11 53
e 11 54
e 11 55
e 11 57
e 11 58
e 11 65
e 11 66
e 11 67
e 11 69
e 11 70
e 11 71
e 11 72
e 12 15
e 12 17
e 12 31
e 12 32
e 12 33
e 12 34
e 12 35
e 12 36
e 12 37
e 12 38
e 12 39
e 12 40
e 12 41
e 12 42
e 12 43
e 12 44
e 12 45
e 12 46
e 12 47
e 12 48
e 12 49
e 12 56
e 12 57
e 12 58
e 12 59
e 12 60
e 12 61
e 12 62
e 12 63
e 12 64
e 12 68
e 12 72
e 13 14
e 13 16
e 13 18
e 13 19
e 13 20
e 13 21
e 13 22
e 13 23
e 13 24
e 13 25
e 13 26
e 13 27
e 13 28
e 13 29
e 13 30
e 13 50
e 13 51
e 13 52
e 13 53
e 13 54
e 13 55
e 13 57
e 13 58
e 13 65
e 13 66
e 13 67
e 13 69
e 13 70
e 13 71
e 13 72
e 14 16
e 14 17
e 14 18
e 14 19
e 14 20
e 14 21
e 14 22
e 14 23
e 14 24
e 14 25
e 14 26
e 14 27
e 14 28
e 14 29
e 14 30
e 14 50
e 14 51
e 14 52
e 14 53
e 14 54
e 14 55
e 14 57
e 14 58
e 14 65
e 14 66
e 14 67
e 14 69
e 14 70
e 14 71
e 14 72
e 15 17
e 15 31
e 15 32
e 15 33
e 15 34
e 15 35
e 15 36
e 15 37
e 15 38
e 15 39
e 15 40
e 15 41
e 15 42
e 15 43
e 15 44
e 15 45
e 15 46
e 15 47
e 15 48
e 15 49
e 15 56
e 15 57
e 15 58
e 15 59
e 15 60
e 15 61
e 15 62
e 15 63
e 15 64
e 15 68
e 15 72
e 16 18
e 16 19
e 16 20
e 16 21
e 16 22
e 16 23
e 16 24
e 16 25
e 16 26
e 16 27
e 16 28
e 16 29
e 16 30
e 16 50
e 16 51
e 16 52
e 16 53
e 16 54
e 16 55
e 16 57
e 16 58
e 16 65
e 16 66
e 16 67
e 16 69
e 16 70
e 16 71
e 16 72
e 17 31
e 17 32
e 17 33
e 17 34
e 17 35
e 17 36
e 17 37
e 17 38
e 17 39
e 17 40
e 17 41
e 17 42
e 17 43
e 17 44
e 17 45
e 17 46
e 17 47
e 17 48
e 17 49
e 17 56
e 17 59
e 17 60
e 17 61
e 17 62
e 17 63
e 17 64
e 17 68
e 18 19
e 18 20
e 18 21
e 18 22
e 18 23
e 18 24
e 18 25
e 18 26
e 18 27
e 18 28
e 18 29
e 18 30
e 18 50
e 18 51
e 18 52
e 18 53
e 18 54
e 18 55
e 18 57
e 18 58
e 18 65
e 18 66
e 18 67
e 18 69
e 18 70
e 18 71
e 18 72
e 19 20
e 19 21
e 19 22
e 19 23
e 19 24
e 19 25
e 19 26
e 19 27
e 19 28
e 19 29
e 19 30
e 19 50
e 19 51
e 19 52
e 19 53
e 19 54
e 19 55
e 19 57
e 19 58
e 19 65
e 19 66
e 19 67
e 19 69
e 19 70
e 19 71
e 19 72
e 20 21
e 20 22
e 20 23
e 20 24
e 20 25
e 20 26
e 20 27
e 20 28
e 20 29
e 20 30
e 20 50
e 20 51
e 20 52
e 20 53
e 20 54
e 20 55
e 20 57
e 20 58
e 20 65
e 20 66
e 20 67
e 20 69
e 20 70
e 20 71
e 20 72
e 21 22
e 21 23
e 21 24
e 21 25
e 21 26
e 21 27
e 21 28
e 21 29
e 21 30
e 21 50
e 21 51
e 21 52
e 21 53
e 21 54
e 21 55
e 21 57
e 21 58
e 21 65
e 21 66
e 21 67
e 21 69
e 21 70
e 21 71
e 21 72
e 22 23
e 22 24
e 22 25
e 22 26
e 22 27
e 22 28
e 22 29
e 22 30
e 22 50
e 22 51
e 22 52
e 22 53
e 22 54
e 22 55
e 22 57
e 22 58
e 22 65
e 22 66
e 22 67
e 22 69
e 22 70
e 22 71
e 22 72
e 23 24
e 23 25
e 23 26
e 23 27
e 23 28
e 23 29
e 23 30
e 23 50
e 23 51
e 23 52
e 23 53
e 23 54
e 23 55
e 23 57
e 23 58
e 23 65
e 23 66
e 23 67
e 23 69
e 23 70
e 23 71
e 23 72
e 24 25
e 24 26
e 24 27
e 24 28
e 24 29
e 24 30
e 24 50
e 24 51
e 24 52
e 24 53
e 24 54
e 24 55
e 24 57
e 24 58
e 24 65
e 24 66
e 24 67
e 24 69
e 24 70
e 24 71
e 24 72
e 25 26
e 25 27
e 25 28
e 25 29
e 25 30
e 25 50
e 25 51
e 25 52
e 25 53
e 25 54
e 25 55
e 25 57
e 25 58
e 25 65
e 25 66
e 25 67
e 25 69
e 25 70
e 25 71
e 25 72
e 26 27
e 26 28
e 26 29
e 26 30
e 26 50
e 26 51
e 26 52
e 26 53
e 26 54
e 26 55
e 26 57
e 26 58
e 26 65
e 26 66
e 26 67
e 26 69
e 26 70
e 26 71
e 26 72
e 27 28
e 27 29
e 27 30
e 27 50
e 27 51
e 27 52
e 27 53
e 27 54
e 27 55
e 27 57
e 27 58
e 27 65
e 27 66
e 27 67
e 27 69
e 27 70
e 27 71
e 27 72
e 28 29
e 28 30
e 28 50
e 28 51
e 28 52
e 28 53
e 28 54
e 28 55
e 28 57
e 28 58
e 28 65
e 28 66
e 28 67
e 28 69
e 28 70
e 28 71
e 28 72
e 29 30
e 29 50
e 29 51
e 29 52
e 29 53
e 29 54
e 29 55
e 29 57
e 29 58
e 29 65
e 29 66
e 29 67
e 29 69
e 29 70
e 29 71
e 29 72
e 30 50
e 30 51
e 30 52
e 30 53
e 30 54
e 30 55
e 30 57
e 30 58
e 30 65
e 30 66
e 30 67
e 30 69
e 30 70
e 30 71
e 30 72
e 31 32
e 31 33
e 31 34
e 31 35
e 31 36
e 31 37
e 31 38
e 31 39
e 31 40
e 31 41
e 31 42
e 31 43
e 31 44
e 31 45
e 31 46
e 31 47
e 31 48
e 31 49
e 31 56
e 31 57
e 31 58
e 31 59
e 31 60
e 31 61
e 31 62
e 31 63
e 31 64
e 31 68
e 32 33
e 32 34
e 32 35
e 32 36
e 32 37
e 32 38
e 32 39
e 32 40
e 32 41
e 32 42
e 32 43
e 32 44
e 32 45
e 32 46
e 32 47
e 32 48
e 32 49
e 32 56
e 32 59
e 32 60
e 32 61
e 32 62
e 32 63
e 32 64
e 32 68
e 33 34
e 33 35
e 33 36
e 33 37
e 33 38
e 33 39
e 33 40
e 33 41
e 33 42
e 33 43
e 33 44
e 33 45
e 33 46
e 33 47
e 33 48
e 33 49
e 33 56
e 33 59
e 33 60
e 33 61
e 33 62
e 33 63
e 33 64
e 33 68
e 34 35
e 34 36
e 34 37
e 34 38
e 34 39
e 34 40
e 34 41
e 34 42
e 34 43
e 34 44
e 34 45
e 34 46
e 34 47
e 34 48
e 34 49
e 34 56
e 34 59
e 34 60
e 34 61
e 34 62
e 34 63
e 34 64
e 34 68
e 35 36
e 35 37
e 35 38
e 35 39
e 35 40
e 35 41
e 35 42
e 35 43
e 35 44
e 35 45
e 35 46
e 35 47
e 35 48
e 35 49
e 35 56
e 35 59
e 35 60
e 35 61
e 35 62
e 35 63
e 35 64
e 35 68
e 36 37
e 36 38
e 36 39
e 36 40
e 36 41
e 36 42
e 36 43
e 36 44
e 36 45
e 36 46
e 36 47
e 36 48
e 36 49
e 36 56
e 36 59
e 36 60
e 36 61
e 36 62
e 36 63
e 36 64
e 36 68
e 37 38
e 37 39
e 37 40
e 37 41
e 37 42
e 37 43
e 37 44
e 37 45
e 37 46
e 37 47
e 37 48
e 37 49
e 37 56
e 37 59
e 37 60
e 37 61
e 37 62
e 37 63
e 37 64
e 37 68
e 38 39
e 38 40
e 38 41
e 38 42
e 38 43
e 38 44
e 38 45
e 38 46
e 38 47
e 38 48
e 38 49
e 38 56
e 38 59
e 38 60
e 38 61
e 38 62
e 38 63
e 38 64
e 38 68
e 39 40
e 39 41
e 39 42
e 39 43
e 39 44
e 39 45
e 39 46
e 39 47
e 39 48
e 39 49
e 39 56
e 39 59
e 39 60
e 39 61
e 39 62
e 39 63
e 39 64
e 39 68
e 40 41
e 40 42
e 40 43
e 40 44
e 40 45
e 40 46
e 40 47
e 40 48
e 40 49
e 40 56
e 40 59
e 40 60
e 40 61
e 40 62
e 40 63
e 40 64
e 40 68
e 41 42
e 41 43
e 41 44
e 41 45
e 41 46
e 41 47
e 41 48
e 41 49
e 41 56
e 41 59
e 41 60
e 41 61
e 41 62
e 41 63
e 41 64
e 41 68
e 42 43
e 42 44
e 42 45
e 42 46
e 42 47
e 42 48
e 42 49
e 42 56
e 42 57
e 42 59
e 42 60
e 42 61
e 42 62
e 42 63
e 42 64
e 42 68
e 43 44
e 43 45
e 43 46
e 43 47
e 43 48
e 43 49
e 43 56
e 43 59
e 43 60
e 43 61
e 43 62
e 43 63
e 43 64
e 43 68
e 44 45
e 44 46
e 44 47
e 44 48
e 44 49
e 44 56
e 44 59
e 44 60
e 44 61
e 44 62
e 44 63
e 44 64
e 44 68
e 45 46
e 45 47
e 45 48
e 45 49
e 45 56
e 45 59
e 45 60
e 45 61
e 45 62
e 45 63
e 45 64
e 45 68
e 46 47
e 46 48
e 46 49
e 46 56
e 46 59
e 46 60
e 46 61
e 46 62
e 46 63
e 46 64
e 46 68
e 47 48
e 47 49
e 47 56
e 47 59
e 47 60
e 47 61
e 47 62
e 47 63
e 47 64
e 47 68
e 48 49
e 48 56
e 48 59
e 48 60
e 48 61
e 48 62
e 48 63
e 48 64
e 48 68
e 49 56
e 49 59
e 49 60
e 49 61
e 49 62
e 49 63
e 49 64
e 49 68
e 50 51
e 50 52
e 50 53
e 50 54
e 50 55
e 50 65
e 50 66
e 50 67
e 50 69
e 50 70
e 50 71
e 51 52
e 51 53
e 51 54
e 51 55
e 51 65
e 51 66
e 51 67
e 51 69
e 51 70
e 51 71
e 52 53
e 52 54
e 52 55
e 52 65
e 52 66
e 52 67
e 52 69
e 52 70
e 52 71
e 53 54
e 53 55
e 53 65
e 53 66
e 53 67
e 53 69
e 53 70
e 53 71
e 54 55
e 54 65
e 54 66
e 54 67
e 54 69
e 54 70
e 54 71
e 55 65
e 55 66
e 55 67
e 55 69
e 55 70
e 55 71
e 56 60
e 56 61
e 56 62
e 56 63
e 57 58
e 57 72
e 58 72
e 59 64
e 59 68
e 60 61
e 62 63
e 64 68
e 65 66
e 65 67
e 66 67
e 69 70
e 69 71
e 70 71
